c A SAT instance generated from a 3-CNF formula that had 30 clauses and 15 variables
p cnf 15 30
2 -7 -5 0
6 5 -11 0
14 6 -13 0
2 3 5 0
6 13 -4 0
12 6 10 0
-11 -8 -10 0
2 -13 -5 0
-4 5 14 0
-12 15 11 0
6 2 7 0
7 -4 1 0
12 -15 -14 0
-6 -8 -5 0
-8 -15 11 0
-3 2 10 0
-5 10 -13 0
-11 5 14 0
11 -13 6 0
1 8 2 0
8 -2 -4 0
-1 -8 -4 0
1 3 13 0
-9 -10 15 0
-7 13 14 0
12 7 6 0
5 15 -8 0
-15 -7 -10 0
8 12 9 0
-13 -10 -6 0
%
0

32 12 97 94 86 74 57 97 65 100 7 27 97 72 49 25 24 89 35 62
